40
1 0 5
2 0 39
2 1 14
3 0 26
3 1 9
3 2 41
4 0 58
4 1 49
4 2 44
4 3 29
5 0 38
5 1 45
5 2 24
5 3 49
5 4 57
6 0 9
6 1 47
6 2 53
6 3 25
6 4 16
6 5 2
7 0 31
7 1 51
7 2 31
7 3 52
7 4 8
7 5 54
7 6 17
8 0 51
8 1 41
8 2 15
8 3 17
8 4 53
8 5 36
8 6 60
8 7 26
9 0 59
9 1 18
9 2 43
9 3 9
9 4 55
9 5 14
9 6 42
9 7 43
9 8 11
10 0 54
10 1 17
10 2 1
10 3 28
10 4 44
10 5 10
10 6 48
10 7 33
10 8 51
10 9 6
11 0 18
11 1 19
11 2 38
11 3 29
11 4 55
11 5 16
11 6 4
11 7 43
11 8 9
11 9 44
11 10 6
12 0 10
12 1 6
12 2 51
12 3 28
12 4 28
12 5 13
12 6 31
12 7 47
12 8 4
12 9 1
12 10 31
12 11 49
13 0 36
13 1 12
13 2 9
13 3 15
13 4 15
13 5 3
13 6 58
13 7 20
13 8 25
13 9 9
13 10 53
13 11 24
13 12 9
14 0 7
14 1 13
14 2 44
14 3 12
14 4 23
14 5 57
14 6 43
14 7 46
14 8 38
14 9 56
14 10 60
14 11 10
14 12 8
14 13 44
15 0 14
15 1 6
15 2 15
15 3 50
15 4 30
15 5 7
15 6 57
15 7 56
15 8 28
15 9 36
15 10 45
15 11 36
15 12 4
15 13 15
15 14 46
16 0 48
16 1 7
16 2 58
16 3 40
16 4 46
16 5 12
16 6 35
16 7 42
16 8 24
16 9 35
16 10 49
16 11 6
16 12 7
16 13 18
16 14 30
16 15 30
17 0 48
17 1 23
17 2 48
17 3 16
17 4 15
17 5 4
17 6 3
17 7 48
17 8 26
17 9 16
17 10 34
17 11 13
17 12 24
17 13 51
17 14 15
17 15 59
17 16 19
18 0 22
18 1 9
18 2 21
18 3 34
18 4 16
18 5 7
18 6 50
18 7 26
18 8 56
18 9 14
18 10 56
18 11 56
18 12 44
18 13 49
18 14 47
18 15 57
18 16 13
18 17 50
19 0 36
19 1 27
19 2 9
19 3 29
19 4 3
19 5 45
19 6 47
19 7 51
19 8 51
19 9 53
19 10 39
19 11 10
19 12 15
19 13 38
19 14 3
19 15 1
19 16 19
19 17 49
19 18 32
20 0 24
20 1 58
20 2 49
20 3 23
20 4 44
20 5 19
20 6 22
20 7 60
20 8 57
20 9 46
20 10 17
20 11 12
20 12 23
20 13 54
20 14 39
20 15 23
20 16 12
20 17 8
20 18 18
20 19 44
21 0 24
21 1 27
21 2 1
21 3 3
21 4 41
21 5 2
21 6 43
21 7 51
21 8 50
21 9 34
21 10 11
21 11 43
21 12 12
21 13 10
21 14 37
21 15 24
21 16 44
21 17 33
21 18 50
21 19 34
21 20 13
22 0 54
22 1 41
22 2 47
22 3 4
22 4 19
22 5 24
22 6 44
22 7 44
22 8 3
22 9 45
22 10 56
22 11 20
22 12 41
22 13 11
22 14 32
22 15 26
22 16 9
22 17 19
22 18 32
22 19 46
22 20 14
22 21 38
23 0 10
23 1 28
23 2 41
23 3 8
23 4 41
23 5 15
23 6 31
23 7 7
23 8 7
23 9 16
23 10 45
23 11 42
23 12 43
23 13 48
23 14 52
23 15 35
23 16 57
23 17 7
23 18 43
23 19 58
23 20 37
23 21 49
23 22 28
24 0 58
24 1 59
24 2 51
24 3 15
24 4 48
24 5 30
24 6 47
24 7 5
24 8 26
24 9 9
24 10 8
24 11 29
24 12 44
24 13 37
24 14 51
24 15 3
24 16 10
24 17 50
24 18 1
24 19 26
24 20 31
24 21 33
24 22 49
24 23 55
25 0 18
25 1 60
25 2 55
25 3 27
25 4 52
25 5 52
25 6 60
25 7 25
25 8 13
25 9 6
25 10 1
25 11 13
25 12 6
25 13 1
25 14 32
25 15 55
25 16 58
25 17 22
25 18 5
25 19 35
25 20 50
25 21 37
25 22 28
25 23 20
25 24 7
26 0 58
26 1 31
26 2 54
26 3 46
26 4 58
26 5 25
26 6 32
26 7 44
26 8 23
26 9 5
26 10 18
26 11 20
26 12 4
26 13 53
26 14 10
26 15 49
26 16 42
26 17 43
26 18 30
26 19 34
26 20 48
26 21 16
26 22 56
26 23 42
26 24 17
26 25 2
27 0 27
27 1 48
27 2 35
27 3 26
27 4 20
27 5 6
27 6 6
27 7 55
27 8 30
27 9 31
27 10 13
27 11 60
27 12 55
27 13 6
27 14 36
27 15 49
27 16 33
27 17 9
27 18 13
27 19 17
27 20 51
27 21 39
27 22 16
27 23 10
27 24 39
27 25 56
27 26 16
28 0 44
28 1 10
28 2 5
28 3 33
28 4 26
28 5 26
28 6 48
28 7 17
28 8 16
28 9 12
28 10 16
28 11 38
28 12 19
28 13 15
28 14 9
28 15 34
28 16 57
28 17 46
28 18 34
28 19 36
28 20 35
28 21 60
28 22 53
28 23 26
28 24 42
28 25 29
28 26 31
28 27 14
29 0 6
29 1 33
29 2 14
29 3 2
29 4 8
29 5 53
29 6 27
29 7 26
29 8 27
29 9 12
29 10 45
29 11 45
29 12 38
29 13 41
29 14 32
29 15 11
29 16 43
29 17 22
29 18 15
29 19 36
29 20 29
29 21 46
29 22 4
29 23 4
29 24 54
29 25 27
29 26 46
29 27 17
29 28 11
30 0 21
30 1 2
30 2 28
30 3 30
30 4 2
30 5 35
30 6 19
30 7 58
30 8 58
30 9 52
30 10 13
30 11 44
30 12 4
30 13 14
30 14 42
30 15 16
30 16 28
30 17 39
30 18 57
30 19 53
30 20 34
30 21 32
30 22 42
30 23 36
30 24 53
30 25 20
30 26 57
30 27 19
30 28 7
30 29 41
31 0 15
31 1 22
31 2 28
31 3 31
31 4 38
31 5 38
31 6 5
31 7 15
31 8 18
31 9 57
31 10 24
31 11 10
31 12 35
31 13 26
31 14 28
31 15 22
31 16 57
31 17 50
31 18 41
31 19 60
31 20 10
31 21 18
31 22 30
31 23 46
31 24 29
31 25 58
31 26 54
31 27 43
31 28 47
31 29 20
31 30 1
32 0 60
32 1 5
32 2 12
32 3 55
32 4 53
32 5 38
32 6 55
32 7 23
32 8 28
32 9 35
32 10 57
32 11 33
32 12 43
32 13 2
32 14 6
32 15 19
32 16 45
32 17 50
32 18 53
32 19 16
32 20 33
32 21 30
32 22 2
32 23 12
32 24 38
32 25 8
32 26 53
32 27 42
32 28 8
32 29 9
32 30 13
32 31 20
33 0 29
33 1 16
33 2 1
33 3 17
33 4 37
33 5 57
33 6 49
33 7 41
33 8 21
33 9 32
33 10 53
33 11 41
33 12 25
33 13 18
33 14 30
33 15 29
33 16 18
33 17 32
33 18 43
33 19 20
33 20 44
33 21 24
33 22 38
33 23 28
33 24 38
33 25 50
33 26 5
33 27 45
33 28 56
33 29 3
33 30 1
33 31 55
33 32 14
34 0 20
34 1 21
34 2 6
34 3 37
34 4 10
34 5 43
34 6 8
34 7 48
34 8 46
34 9 35
34 10 20
34 11 35
34 12 46
34 13 37
34 14 5
34 15 16
34 16 35
34 17 18
34 18 37
34 19 23
34 20 36
34 21 7
34 22 15
34 23 4
34 24 10
34 25 45
34 26 29
34 27 50
34 28 18
34 29 24
34 30 34
34 31 35
34 32 24
34 33 50
35 0 11
35 1 7
35 2 15
35 3 56
35 4 50
35 5 27
35 6 28
35 7 45
35 8 41
35 9 49
35 10 50
35 11 34
35 12 2
35 13 3
35 14 14
35 15 13
35 16 54
35 17 38
35 18 27
35 19 46
35 20 4
35 21 52
35 22 34
35 23 20
35 24 43
35 25 50
35 26 60
35 27 33
35 28 35
35 29 59
35 30 26
35 31 10
35 32 6
35 33 35
35 34 2
36 0 29
36 1 7
36 2 31
36 3 53
36 4 51
36 5 60
36 6 59
36 7 20
36 8 23
36 9 18
36 10 8
36 11 50
36 12 29
36 13 22
36 14 47
36 15 21
36 16 7
36 17 25
36 18 31
36 19 41
36 20 32
36 21 60
36 22 6
36 23 52
36 24 10
36 25 1
36 26 56
36 27 46
36 28 59
36 29 31
36 30 41
36 31 35
36 32 7
36 33 59
36 34 44
36 35 40
37 0 1
37 1 2
37 2 1
37 3 1
37 4 3
37 5 25
37 6 60
37 7 16
37 8 34
37 9 3
37 10 16
37 11 11
37 12 50
37 13 11
37 14 59
37 15 47
37 16 8
37 17 8
37 18 54
37 19 42
37 20 14
37 21 15
37 22 52
37 23 28
37 24 44
37 25 40
37 26 5
37 27 39
37 28 9
37 29 34
37 30 17
37 31 18
37 32 57
37 33 25
37 34 57
37 35 48
37 36 22
38 0 53
38 1 1
38 2 21
38 3 9
38 4 13
38 5 31
38 6 37
38 7 35
38 8 4
38 9 36
38 10 9
38 11 59
38 12 28
38 13 26
38 14 43
38 15 4
38 16 12
38 17 5
38 18 42
38 19 38
38 20 44
38 21 26
38 22 2
38 23 22
38 24 26
38 25 38
38 26 30
38 27 48
38 28 6
38 29 44
38 30 20
38 31 50
38 32 31
38 33 23
38 34 15
38 35 13
38 36 48
38 37 54
39 0 41
39 1 1
39 2 55
39 3 60
39 4 33
39 5 48
39 6 22
39 7 52
39 8 4
39 9 5
39 10 56
39 11 38
39 12 12
39 13 36
39 14 12
39 15 17
39 16 59
39 17 59
39 18 8
39 19 32
39 20 38
39 21 10
39 22 43
39 23 8
39 24 19
39 25 34
39 26 53
39 27 58
39 28 52
39 29 48
39 30 45
39 31 35
39 32 60
39 33 38
39 34 15
39 35 58
39 36 34
39 37 12
39 38 35
